0 0
0 0
0 63 56 52 0
0 0
0 0
0 85 87 90 88 91 81 82 78 83 79 140 5 16 17 9 12 110 111 100 98 109 22 20 21 18 58 105 8 11 3 10 4 122 117 114 113 124 119 136 107 137 77 76 54 62 27 36 34 25 29 37 132 134 118 73 74 39 47 49 50 48 42 45 51 59 53 57 103 108 101 104 146 94 96 95 93 75 86 84 148 141 2 14 13 150 15 7 99 66 69 67 72 71 65 70 68 44 43 38 40 41 46 133 131 130 129 112 97 6 1 143 138 139 144 147 142 89 92 80 149 145 102 106 126 116 128 121 123 32 30 28 26 31 127 120 125 115 135 24 23 19 33 35 64 60 55 61 0
0 0
0 0
0 0
0 0
0 0
0 0
0 0
0 0
0 0
0 0
